c *********************************
c * Circuit generated by BenCGen
c *
c * Parity_319
c *
c * Ports with 1 gate(s): 1
c * Ports with 2 gate(s): 319
c * Total gates: 320
c *********************************
p cnf 639 1277
1 322 0
-1 -322 0
1 -321 0
322 -321 0
-1 -322 321 0
1 2 -323 0
-1 2 323 0
1 -2 323 0
-1 -2 -323 0
3 4 -324 0
-3 4 324 0
3 -4 324 0
-3 -4 -324 0
5 6 -325 0
-5 6 325 0
5 -6 325 0
-5 -6 -325 0
7 8 -326 0
-7 8 326 0
7 -8 326 0
-7 -8 -326 0
9 10 -327 0
-9 10 327 0
9 -10 327 0
-9 -10 -327 0
11 12 -328 0
-11 12 328 0
11 -12 328 0
-11 -12 -328 0
13 14 -329 0
-13 14 329 0
13 -14 329 0
-13 -14 -329 0
15 16 -330 0
-15 16 330 0
15 -16 330 0
-15 -16 -330 0
17 18 -331 0
-17 18 331 0
17 -18 331 0
-17 -18 -331 0
19 20 -332 0
-19 20 332 0
19 -20 332 0
-19 -20 -332 0
21 22 -333 0
-21 22 333 0
21 -22 333 0
-21 -22 -333 0
23 24 -334 0
-23 24 334 0
23 -24 334 0
-23 -24 -334 0
25 26 -335 0
-25 26 335 0
25 -26 335 0
-25 -26 -335 0
27 28 -336 0
-27 28 336 0
27 -28 336 0
-27 -28 -336 0
29 30 -337 0
-29 30 337 0
29 -30 337 0
-29 -30 -337 0
31 32 -338 0
-31 32 338 0
31 -32 338 0
-31 -32 -338 0
33 34 -339 0
-33 34 339 0
33 -34 339 0
-33 -34 -339 0
35 36 -340 0
-35 36 340 0
35 -36 340 0
-35 -36 -340 0
37 38 -341 0
-37 38 341 0
37 -38 341 0
-37 -38 -341 0
39 40 -342 0
-39 40 342 0
39 -40 342 0
-39 -40 -342 0
41 42 -343 0
-41 42 343 0
41 -42 343 0
-41 -42 -343 0
43 44 -344 0
-43 44 344 0
43 -44 344 0
-43 -44 -344 0
45 46 -345 0
-45 46 345 0
45 -46 345 0
-45 -46 -345 0
47 48 -346 0
-47 48 346 0
47 -48 346 0
-47 -48 -346 0
49 50 -347 0
-49 50 347 0
49 -50 347 0
-49 -50 -347 0
51 52 -348 0
-51 52 348 0
51 -52 348 0
-51 -52 -348 0
53 54 -349 0
-53 54 349 0
53 -54 349 0
-53 -54 -349 0
55 56 -350 0
-55 56 350 0
55 -56 350 0
-55 -56 -350 0
57 58 -351 0
-57 58 351 0
57 -58 351 0
-57 -58 -351 0
59 60 -352 0
-59 60 352 0
59 -60 352 0
-59 -60 -352 0
61 62 -353 0
-61 62 353 0
61 -62 353 0
-61 -62 -353 0
63 64 -354 0
-63 64 354 0
63 -64 354 0
-63 -64 -354 0
65 66 -355 0
-65 66 355 0
65 -66 355 0
-65 -66 -355 0
67 68 -356 0
-67 68 356 0
67 -68 356 0
-67 -68 -356 0
69 70 -357 0
-69 70 357 0
69 -70 357 0
-69 -70 -357 0
71 72 -358 0
-71 72 358 0
71 -72 358 0
-71 -72 -358 0
73 74 -359 0
-73 74 359 0
73 -74 359 0
-73 -74 -359 0
75 76 -360 0
-75 76 360 0
75 -76 360 0
-75 -76 -360 0
77 78 -361 0
-77 78 361 0
77 -78 361 0
-77 -78 -361 0
79 80 -362 0
-79 80 362 0
79 -80 362 0
-79 -80 -362 0
81 82 -363 0
-81 82 363 0
81 -82 363 0
-81 -82 -363 0
83 84 -364 0
-83 84 364 0
83 -84 364 0
-83 -84 -364 0
85 86 -365 0
-85 86 365 0
85 -86 365 0
-85 -86 -365 0
87 88 -366 0
-87 88 366 0
87 -88 366 0
-87 -88 -366 0
89 90 -367 0
-89 90 367 0
89 -90 367 0
-89 -90 -367 0
91 92 -368 0
-91 92 368 0
91 -92 368 0
-91 -92 -368 0
93 94 -369 0
-93 94 369 0
93 -94 369 0
-93 -94 -369 0
95 96 -370 0
-95 96 370 0
95 -96 370 0
-95 -96 -370 0
97 98 -371 0
-97 98 371 0
97 -98 371 0
-97 -98 -371 0
99 100 -372 0
-99 100 372 0
99 -100 372 0
-99 -100 -372 0
101 102 -373 0
-101 102 373 0
101 -102 373 0
-101 -102 -373 0
103 104 -374 0
-103 104 374 0
103 -104 374 0
-103 -104 -374 0
105 106 -375 0
-105 106 375 0
105 -106 375 0
-105 -106 -375 0
107 108 -376 0
-107 108 376 0
107 -108 376 0
-107 -108 -376 0
109 110 -377 0
-109 110 377 0
109 -110 377 0
-109 -110 -377 0
111 112 -378 0
-111 112 378 0
111 -112 378 0
-111 -112 -378 0
113 114 -379 0
-113 114 379 0
113 -114 379 0
-113 -114 -379 0
115 116 -380 0
-115 116 380 0
115 -116 380 0
-115 -116 -380 0
117 118 -381 0
-117 118 381 0
117 -118 381 0
-117 -118 -381 0
119 120 -382 0
-119 120 382 0
119 -120 382 0
-119 -120 -382 0
121 122 -383 0
-121 122 383 0
121 -122 383 0
-121 -122 -383 0
123 124 -384 0
-123 124 384 0
123 -124 384 0
-123 -124 -384 0
125 126 -385 0
-125 126 385 0
125 -126 385 0
-125 -126 -385 0
127 128 -386 0
-127 128 386 0
127 -128 386 0
-127 -128 -386 0
129 130 -387 0
-129 130 387 0
129 -130 387 0
-129 -130 -387 0
131 132 -388 0
-131 132 388 0
131 -132 388 0
-131 -132 -388 0
133 134 -389 0
-133 134 389 0
133 -134 389 0
-133 -134 -389 0
135 136 -390 0
-135 136 390 0
135 -136 390 0
-135 -136 -390 0
137 138 -391 0
-137 138 391 0
137 -138 391 0
-137 -138 -391 0
139 140 -392 0
-139 140 392 0
139 -140 392 0
-139 -140 -392 0
141 142 -393 0
-141 142 393 0
141 -142 393 0
-141 -142 -393 0
143 144 -394 0
-143 144 394 0
143 -144 394 0
-143 -144 -394 0
145 146 -395 0
-145 146 395 0
145 -146 395 0
-145 -146 -395 0
147 148 -396 0
-147 148 396 0
147 -148 396 0
-147 -148 -396 0
149 150 -397 0
-149 150 397 0
149 -150 397 0
-149 -150 -397 0
151 152 -398 0
-151 152 398 0
151 -152 398 0
-151 -152 -398 0
153 154 -399 0
-153 154 399 0
153 -154 399 0
-153 -154 -399 0
155 156 -400 0
-155 156 400 0
155 -156 400 0
-155 -156 -400 0
157 158 -401 0
-157 158 401 0
157 -158 401 0
-157 -158 -401 0
159 160 -402 0
-159 160 402 0
159 -160 402 0
-159 -160 -402 0
161 162 -403 0
-161 162 403 0
161 -162 403 0
-161 -162 -403 0
163 164 -404 0
-163 164 404 0
163 -164 404 0
-163 -164 -404 0
165 166 -405 0
-165 166 405 0
165 -166 405 0
-165 -166 -405 0
167 168 -406 0
-167 168 406 0
167 -168 406 0
-167 -168 -406 0
169 170 -407 0
-169 170 407 0
169 -170 407 0
-169 -170 -407 0
171 172 -408 0
-171 172 408 0
171 -172 408 0
-171 -172 -408 0
173 174 -409 0
-173 174 409 0
173 -174 409 0
-173 -174 -409 0
175 176 -410 0
-175 176 410 0
175 -176 410 0
-175 -176 -410 0
177 178 -411 0
-177 178 411 0
177 -178 411 0
-177 -178 -411 0
179 180 -412 0
-179 180 412 0
179 -180 412 0
-179 -180 -412 0
181 182 -413 0
-181 182 413 0
181 -182 413 0
-181 -182 -413 0
183 184 -414 0
-183 184 414 0
183 -184 414 0
-183 -184 -414 0
185 186 -415 0
-185 186 415 0
185 -186 415 0
-185 -186 -415 0
187 188 -416 0
-187 188 416 0
187 -188 416 0
-187 -188 -416 0
189 190 -417 0
-189 190 417 0
189 -190 417 0
-189 -190 -417 0
191 192 -418 0
-191 192 418 0
191 -192 418 0
-191 -192 -418 0
193 194 -419 0
-193 194 419 0
193 -194 419 0
-193 -194 -419 0
195 196 -420 0
-195 196 420 0
195 -196 420 0
-195 -196 -420 0
197 198 -421 0
-197 198 421 0
197 -198 421 0
-197 -198 -421 0
199 200 -422 0
-199 200 422 0
199 -200 422 0
-199 -200 -422 0
201 202 -423 0
-201 202 423 0
201 -202 423 0
-201 -202 -423 0
203 204 -424 0
-203 204 424 0
203 -204 424 0
-203 -204 -424 0
205 206 -425 0
-205 206 425 0
205 -206 425 0
-205 -206 -425 0
207 208 -426 0
-207 208 426 0
207 -208 426 0
-207 -208 -426 0
209 210 -427 0
-209 210 427 0
209 -210 427 0
-209 -210 -427 0
211 212 -428 0
-211 212 428 0
211 -212 428 0
-211 -212 -428 0
213 214 -429 0
-213 214 429 0
213 -214 429 0
-213 -214 -429 0
215 216 -430 0
-215 216 430 0
215 -216 430 0
-215 -216 -430 0
217 218 -431 0
-217 218 431 0
217 -218 431 0
-217 -218 -431 0
219 220 -432 0
-219 220 432 0
219 -220 432 0
-219 -220 -432 0
221 222 -433 0
-221 222 433 0
221 -222 433 0
-221 -222 -433 0
223 224 -434 0
-223 224 434 0
223 -224 434 0
-223 -224 -434 0
225 226 -435 0
-225 226 435 0
225 -226 435 0
-225 -226 -435 0
227 228 -436 0
-227 228 436 0
227 -228 436 0
-227 -228 -436 0
229 230 -437 0
-229 230 437 0
229 -230 437 0
-229 -230 -437 0
231 232 -438 0
-231 232 438 0
231 -232 438 0
-231 -232 -438 0
233 234 -439 0
-233 234 439 0
233 -234 439 0
-233 -234 -439 0
235 236 -440 0
-235 236 440 0
235 -236 440 0
-235 -236 -440 0
237 238 -441 0
-237 238 441 0
237 -238 441 0
-237 -238 -441 0
239 240 -442 0
-239 240 442 0
239 -240 442 0
-239 -240 -442 0
241 242 -443 0
-241 242 443 0
241 -242 443 0
-241 -242 -443 0
243 244 -444 0
-243 244 444 0
243 -244 444 0
-243 -244 -444 0
245 246 -445 0
-245 246 445 0
245 -246 445 0
-245 -246 -445 0
247 248 -446 0
-247 248 446 0
247 -248 446 0
-247 -248 -446 0
249 250 -447 0
-249 250 447 0
249 -250 447 0
-249 -250 -447 0
251 252 -448 0
-251 252 448 0
251 -252 448 0
-251 -252 -448 0
253 254 -449 0
-253 254 449 0
253 -254 449 0
-253 -254 -449 0
255 256 -450 0
-255 256 450 0
255 -256 450 0
-255 -256 -450 0
257 258 -451 0
-257 258 451 0
257 -258 451 0
-257 -258 -451 0
259 260 -452 0
-259 260 452 0
259 -260 452 0
-259 -260 -452 0
261 262 -453 0
-261 262 453 0
261 -262 453 0
-261 -262 -453 0
263 264 -454 0
-263 264 454 0
263 -264 454 0
-263 -264 -454 0
265 266 -455 0
-265 266 455 0
265 -266 455 0
-265 -266 -455 0
267 268 -456 0
-267 268 456 0
267 -268 456 0
-267 -268 -456 0
269 270 -457 0
-269 270 457 0
269 -270 457 0
-269 -270 -457 0
271 272 -458 0
-271 272 458 0
271 -272 458 0
-271 -272 -458 0
273 274 -459 0
-273 274 459 0
273 -274 459 0
-273 -274 -459 0
275 276 -460 0
-275 276 460 0
275 -276 460 0
-275 -276 -460 0
277 278 -461 0
-277 278 461 0
277 -278 461 0
-277 -278 -461 0
279 280 -462 0
-279 280 462 0
279 -280 462 0
-279 -280 -462 0
281 282 -463 0
-281 282 463 0
281 -282 463 0
-281 -282 -463 0
283 284 -464 0
-283 284 464 0
283 -284 464 0
-283 -284 -464 0
285 286 -465 0
-285 286 465 0
285 -286 465 0
-285 -286 -465 0
287 288 -466 0
-287 288 466 0
287 -288 466 0
-287 -288 -466 0
289 290 -467 0
-289 290 467 0
289 -290 467 0
-289 -290 -467 0
291 292 -468 0
-291 292 468 0
291 -292 468 0
-291 -292 -468 0
293 294 -469 0
-293 294 469 0
293 -294 469 0
-293 -294 -469 0
295 296 -470 0
-295 296 470 0
295 -296 470 0
-295 -296 -470 0
297 298 -471 0
-297 298 471 0
297 -298 471 0
-297 -298 -471 0
299 300 -472 0
-299 300 472 0
299 -300 472 0
-299 -300 -472 0
301 302 -473 0
-301 302 473 0
301 -302 473 0
-301 -302 -473 0
303 304 -474 0
-303 304 474 0
303 -304 474 0
-303 -304 -474 0
305 306 -475 0
-305 306 475 0
305 -306 475 0
-305 -306 -475 0
307 308 -476 0
-307 308 476 0
307 -308 476 0
-307 -308 -476 0
309 310 -477 0
-309 310 477 0
309 -310 477 0
-309 -310 -477 0
311 312 -478 0
-311 312 478 0
311 -312 478 0
-311 -312 -478 0
313 314 -479 0
-313 314 479 0
313 -314 479 0
-313 -314 -479 0
315 316 -480 0
-315 316 480 0
315 -316 480 0
-315 -316 -480 0
317 318 -481 0
-317 318 481 0
317 -318 481 0
-317 -318 -481 0
323 324 -482 0
-323 324 482 0
323 -324 482 0
-323 -324 -482 0
325 326 -483 0
-325 326 483 0
325 -326 483 0
-325 -326 -483 0
327 328 -484 0
-327 328 484 0
327 -328 484 0
-327 -328 -484 0
329 330 -485 0
-329 330 485 0
329 -330 485 0
-329 -330 -485 0
331 332 -486 0
-331 332 486 0
331 -332 486 0
-331 -332 -486 0
333 334 -487 0
-333 334 487 0
333 -334 487 0
-333 -334 -487 0
335 336 -488 0
-335 336 488 0
335 -336 488 0
-335 -336 -488 0
337 338 -489 0
-337 338 489 0
337 -338 489 0
-337 -338 -489 0
339 340 -490 0
-339 340 490 0
339 -340 490 0
-339 -340 -490 0
341 342 -491 0
-341 342 491 0
341 -342 491 0
-341 -342 -491 0
343 344 -492 0
-343 344 492 0
343 -344 492 0
-343 -344 -492 0
345 346 -493 0
-345 346 493 0
345 -346 493 0
-345 -346 -493 0
347 348 -494 0
-347 348 494 0
347 -348 494 0
-347 -348 -494 0
349 350 -495 0
-349 350 495 0
349 -350 495 0
-349 -350 -495 0
351 352 -496 0
-351 352 496 0
351 -352 496 0
-351 -352 -496 0
353 354 -497 0
-353 354 497 0
353 -354 497 0
-353 -354 -497 0
355 356 -498 0
-355 356 498 0
355 -356 498 0
-355 -356 -498 0
357 358 -499 0
-357 358 499 0
357 -358 499 0
-357 -358 -499 0
359 360 -500 0
-359 360 500 0
359 -360 500 0
-359 -360 -500 0
361 362 -501 0
-361 362 501 0
361 -362 501 0
-361 -362 -501 0
363 364 -502 0
-363 364 502 0
363 -364 502 0
-363 -364 -502 0
365 366 -503 0
-365 366 503 0
365 -366 503 0
-365 -366 -503 0
367 368 -504 0
-367 368 504 0
367 -368 504 0
-367 -368 -504 0
369 370 -505 0
-369 370 505 0
369 -370 505 0
-369 -370 -505 0
371 372 -506 0
-371 372 506 0
371 -372 506 0
-371 -372 -506 0
373 374 -507 0
-373 374 507 0
373 -374 507 0
-373 -374 -507 0
375 376 -508 0
-375 376 508 0
375 -376 508 0
-375 -376 -508 0
377 378 -509 0
-377 378 509 0
377 -378 509 0
-377 -378 -509 0
379 380 -510 0
-379 380 510 0
379 -380 510 0
-379 -380 -510 0
381 382 -511 0
-381 382 511 0
381 -382 511 0
-381 -382 -511 0
383 384 -512 0
-383 384 512 0
383 -384 512 0
-383 -384 -512 0
385 386 -513 0
-385 386 513 0
385 -386 513 0
-385 -386 -513 0
387 388 -514 0
-387 388 514 0
387 -388 514 0
-387 -388 -514 0
389 390 -515 0
-389 390 515 0
389 -390 515 0
-389 -390 -515 0
391 392 -516 0
-391 392 516 0
391 -392 516 0
-391 -392 -516 0
393 394 -517 0
-393 394 517 0
393 -394 517 0
-393 -394 -517 0
395 396 -518 0
-395 396 518 0
395 -396 518 0
-395 -396 -518 0
397 398 -519 0
-397 398 519 0
397 -398 519 0
-397 -398 -519 0
399 400 -520 0
-399 400 520 0
399 -400 520 0
-399 -400 -520 0
401 402 -521 0
-401 402 521 0
401 -402 521 0
-401 -402 -521 0
403 404 -522 0
-403 404 522 0
403 -404 522 0
-403 -404 -522 0
405 406 -523 0
-405 406 523 0
405 -406 523 0
-405 -406 -523 0
407 408 -524 0
-407 408 524 0
407 -408 524 0
-407 -408 -524 0
409 410 -525 0
-409 410 525 0
409 -410 525 0
-409 -410 -525 0
411 412 -526 0
-411 412 526 0
411 -412 526 0
-411 -412 -526 0
413 414 -527 0
-413 414 527 0
413 -414 527 0
-413 -414 -527 0
415 416 -528 0
-415 416 528 0
415 -416 528 0
-415 -416 -528 0
417 418 -529 0
-417 418 529 0
417 -418 529 0
-417 -418 -529 0
419 420 -530 0
-419 420 530 0
419 -420 530 0
-419 -420 -530 0
421 422 -531 0
-421 422 531 0
421 -422 531 0
-421 -422 -531 0
423 424 -532 0
-423 424 532 0
423 -424 532 0
-423 -424 -532 0
425 426 -533 0
-425 426 533 0
425 -426 533 0
-425 -426 -533 0
427 428 -534 0
-427 428 534 0
427 -428 534 0
-427 -428 -534 0
429 430 -535 0
-429 430 535 0
429 -430 535 0
-429 -430 -535 0
431 432 -536 0
-431 432 536 0
431 -432 536 0
-431 -432 -536 0
433 434 -537 0
-433 434 537 0
433 -434 537 0
-433 -434 -537 0
435 436 -538 0
-435 436 538 0
435 -436 538 0
-435 -436 -538 0
437 438 -539 0
-437 438 539 0
437 -438 539 0
-437 -438 -539 0
439 440 -540 0
-439 440 540 0
439 -440 540 0
-439 -440 -540 0
441 442 -541 0
-441 442 541 0
441 -442 541 0
-441 -442 -541 0
443 444 -542 0
-443 444 542 0
443 -444 542 0
-443 -444 -542 0
445 446 -543 0
-445 446 543 0
445 -446 543 0
-445 -446 -543 0
447 448 -544 0
-447 448 544 0
447 -448 544 0
-447 -448 -544 0
449 450 -545 0
-449 450 545 0
449 -450 545 0
-449 -450 -545 0
451 452 -546 0
-451 452 546 0
451 -452 546 0
-451 -452 -546 0
453 454 -547 0
-453 454 547 0
453 -454 547 0
-453 -454 -547 0
455 456 -548 0
-455 456 548 0
455 -456 548 0
-455 -456 -548 0
457 458 -549 0
-457 458 549 0
457 -458 549 0
-457 -458 -549 0
459 460 -550 0
-459 460 550 0
459 -460 550 0
-459 -460 -550 0
461 462 -551 0
-461 462 551 0
461 -462 551 0
-461 -462 -551 0
463 464 -552 0
-463 464 552 0
463 -464 552 0
-463 -464 -552 0
465 466 -553 0
-465 466 553 0
465 -466 553 0
-465 -466 -553 0
467 468 -554 0
-467 468 554 0
467 -468 554 0
-467 -468 -554 0
469 470 -555 0
-469 470 555 0
469 -470 555 0
-469 -470 -555 0
471 472 -556 0
-471 472 556 0
471 -472 556 0
-471 -472 -556 0
473 474 -557 0
-473 474 557 0
473 -474 557 0
-473 -474 -557 0
475 476 -558 0
-475 476 558 0
475 -476 558 0
-475 -476 -558 0
477 478 -559 0
-477 478 559 0
477 -478 559 0
-477 -478 -559 0
479 480 -560 0
-479 480 560 0
479 -480 560 0
-479 -480 -560 0
481 319 -561 0
-481 319 561 0
481 -319 561 0
-481 -319 -561 0
482 483 -562 0
-482 483 562 0
482 -483 562 0
-482 -483 -562 0
484 485 -563 0
-484 485 563 0
484 -485 563 0
-484 -485 -563 0
486 487 -564 0
-486 487 564 0
486 -487 564 0
-486 -487 -564 0
488 489 -565 0
-488 489 565 0
488 -489 565 0
-488 -489 -565 0
490 491 -566 0
-490 491 566 0
490 -491 566 0
-490 -491 -566 0
492 493 -567 0
-492 493 567 0
492 -493 567 0
-492 -493 -567 0
494 495 -568 0
-494 495 568 0
494 -495 568 0
-494 -495 -568 0
496 497 -569 0
-496 497 569 0
496 -497 569 0
-496 -497 -569 0
498 499 -570 0
-498 499 570 0
498 -499 570 0
-498 -499 -570 0
500 501 -571 0
-500 501 571 0
500 -501 571 0
-500 -501 -571 0
502 503 -572 0
-502 503 572 0
502 -503 572 0
-502 -503 -572 0
504 505 -573 0
-504 505 573 0
504 -505 573 0
-504 -505 -573 0
506 507 -574 0
-506 507 574 0
506 -507 574 0
-506 -507 -574 0
508 509 -575 0
-508 509 575 0
508 -509 575 0
-508 -509 -575 0
510 511 -576 0
-510 511 576 0
510 -511 576 0
-510 -511 -576 0
512 513 -577 0
-512 513 577 0
512 -513 577 0
-512 -513 -577 0
514 515 -578 0
-514 515 578 0
514 -515 578 0
-514 -515 -578 0
516 517 -579 0
-516 517 579 0
516 -517 579 0
-516 -517 -579 0
518 519 -580 0
-518 519 580 0
518 -519 580 0
-518 -519 -580 0
520 521 -581 0
-520 521 581 0
520 -521 581 0
-520 -521 -581 0
522 523 -582 0
-522 523 582 0
522 -523 582 0
-522 -523 -582 0
524 525 -583 0
-524 525 583 0
524 -525 583 0
-524 -525 -583 0
526 527 -584 0
-526 527 584 0
526 -527 584 0
-526 -527 -584 0
528 529 -585 0
-528 529 585 0
528 -529 585 0
-528 -529 -585 0
530 531 -586 0
-530 531 586 0
530 -531 586 0
-530 -531 -586 0
532 533 -587 0
-532 533 587 0
532 -533 587 0
-532 -533 -587 0
534 535 -588 0
-534 535 588 0
534 -535 588 0
-534 -535 -588 0
536 537 -589 0
-536 537 589 0
536 -537 589 0
-536 -537 -589 0
538 539 -590 0
-538 539 590 0
538 -539 590 0
-538 -539 -590 0
540 541 -591 0
-540 541 591 0
540 -541 591 0
-540 -541 -591 0
542 543 -592 0
-542 543 592 0
542 -543 592 0
-542 -543 -592 0
544 545 -593 0
-544 545 593 0
544 -545 593 0
-544 -545 -593 0
546 547 -594 0
-546 547 594 0
546 -547 594 0
-546 -547 -594 0
548 549 -595 0
-548 549 595 0
548 -549 595 0
-548 -549 -595 0
550 551 -596 0
-550 551 596 0
550 -551 596 0
-550 -551 -596 0
552 553 -597 0
-552 553 597 0
552 -553 597 0
-552 -553 -597 0
554 555 -598 0
-554 555 598 0
554 -555 598 0
-554 -555 -598 0
556 557 -599 0
-556 557 599 0
556 -557 599 0
-556 -557 -599 0
558 559 -600 0
-558 559 600 0
558 -559 600 0
-558 -559 -600 0
560 561 -601 0
-560 561 601 0
560 -561 601 0
-560 -561 -601 0
562 563 -602 0
-562 563 602 0
562 -563 602 0
-562 -563 -602 0
564 565 -603 0
-564 565 603 0
564 -565 603 0
-564 -565 -603 0
566 567 -604 0
-566 567 604 0
566 -567 604 0
-566 -567 -604 0
568 569 -605 0
-568 569 605 0
568 -569 605 0
-568 -569 -605 0
570 571 -606 0
-570 571 606 0
570 -571 606 0
-570 -571 -606 0
572 573 -607 0
-572 573 607 0
572 -573 607 0
-572 -573 -607 0
574 575 -608 0
-574 575 608 0
574 -575 608 0
-574 -575 -608 0
576 577 -609 0
-576 577 609 0
576 -577 609 0
-576 -577 -609 0
578 579 -610 0
-578 579 610 0
578 -579 610 0
-578 -579 -610 0
580 581 -611 0
-580 581 611 0
580 -581 611 0
-580 -581 -611 0
582 583 -612 0
-582 583 612 0
582 -583 612 0
-582 -583 -612 0
584 585 -613 0
-584 585 613 0
584 -585 613 0
-584 -585 -613 0
586 587 -614 0
-586 587 614 0
586 -587 614 0
-586 -587 -614 0
588 589 -615 0
-588 589 615 0
588 -589 615 0
-588 -589 -615 0
590 591 -616 0
-590 591 616 0
590 -591 616 0
-590 -591 -616 0
592 593 -617 0
-592 593 617 0
592 -593 617 0
-592 -593 -617 0
594 595 -618 0
-594 595 618 0
594 -595 618 0
-594 -595 -618 0
596 597 -619 0
-596 597 619 0
596 -597 619 0
-596 -597 -619 0
598 599 -620 0
-598 599 620 0
598 -599 620 0
-598 -599 -620 0
600 601 -621 0
-600 601 621 0
600 -601 621 0
-600 -601 -621 0
602 603 -622 0
-602 603 622 0
602 -603 622 0
-602 -603 -622 0
604 605 -623 0
-604 605 623 0
604 -605 623 0
-604 -605 -623 0
606 607 -624 0
-606 607 624 0
606 -607 624 0
-606 -607 -624 0
608 609 -625 0
-608 609 625 0
608 -609 625 0
-608 -609 -625 0
610 611 -626 0
-610 611 626 0
610 -611 626 0
-610 -611 -626 0
612 613 -627 0
-612 613 627 0
612 -613 627 0
-612 -613 -627 0
614 615 -628 0
-614 615 628 0
614 -615 628 0
-614 -615 -628 0
616 617 -629 0
-616 617 629 0
616 -617 629 0
-616 -617 -629 0
618 619 -630 0
-618 619 630 0
618 -619 630 0
-618 -619 -630 0
620 621 -631 0
-620 621 631 0
620 -621 631 0
-620 -621 -631 0
622 623 -632 0
-622 623 632 0
622 -623 632 0
-622 -623 -632 0
624 625 -633 0
-624 625 633 0
624 -625 633 0
-624 -625 -633 0
626 627 -634 0
-626 627 634 0
626 -627 634 0
-626 -627 -634 0
628 629 -635 0
-628 629 635 0
628 -629 635 0
-628 -629 -635 0
630 631 -636 0
-630 631 636 0
630 -631 636 0
-630 -631 -636 0
632 633 -637 0
-632 633 637 0
632 -633 637 0
-632 -633 -637 0
634 635 -638 0
-634 635 638 0
634 -635 638 0
-634 -635 -638 0
637 638 -639 0
-637 638 639 0
637 -638 639 0
-637 -638 -639 0
639 636 -320 0
-639 636 320 0
639 -636 320 0
-639 -636 -320 0
